% seed = 0

mint = 18;
% maxt = 69;

nActs = 27;
dur = [0,2,4,3,4,1,2,5,4,3,3,3,2,1,3,5,2,3,2,1,1,4,1,3,4,3,0];

nSkills = 3;
sreq = [| 0,0,0,
	| 0,1,0,
	| 0,1,0,
	| 0,1,0,
	| 0,0,1,
	| 0,0,1,
	| 0,1,0,
	| 0,0,1,
	| 0,0,1,
	| 0,0,1,
	| 0,1,0,
	| 0,0,1,
	| 0,1,0,
	| 0,1,0,
	| 0,0,1,
	| 0,0,1,
	| 0,1,0,
	| 0,1,0,
	| 0,1,0,
	| 0,0,1,
	| 0,1,0,
	| 0,0,1,
	| 0,0,1,
	| 0,1,1,
	| 0,1,0,
	| 0,0,1,
	| 0,0,0, |];

% SumOfsreq = 26;

nResources = 2;
mastery = [| true,true,false,
	| false,false,true, |];

nPrecs = 90;
pred = [1,1,1,1,1,1,1,1,1,1,1,1,1,1,1,1,1,1,1,1,1,1,1,1,1,2,2,2,2,2,3,4,4,4,5,5,5,5,5,5,6,6,6,6,7,7,7,7,7,8,8,9,9,10,10,10,10,10,11,11,11,11,12,12,13,13,14,14,14,15,15,15,16,16,16,17,17,18,19,19,20,20,21,21,22,23,24,24,25,26];
succ = [2,3,4,5,6,7,8,9,10,11,12,13,14,15,16,17,18,19,20,21,22,23,24,25,26,17,18,27,7,25,27,18,27,23,12,18,23,24,25,27,9,25,27,21,9,17,27,23,25,17,27,11,27,25,26,27,22,15,17,25,27,12,25,27,27,15,27,23,16,18,27,24,19,27,23,18,27,27,26,27,25,27,27,23,27,27,25,27,27,27];

nUnrels = 233;
unpred = [2,2,2,2,2,2,2,2,2,2,2,2,2,2,2,2,3,3,3,3,3,3,3,3,3,3,3,3,3,3,3,3,3,3,3,3,3,3,3,4,4,4,4,4,4,4,4,4,4,4,4,4,4,4,4,4,4,4,4,5,5,5,5,5,5,5,5,5,5,5,5,5,5,5,5,6,6,6,6,6,6,6,6,6,6,6,6,7,7,7,7,7,7,7,7,7,7,7,7,8,8,8,8,8,8,8,8,8,8,8,8,8,8,8,8,9,9,9,9,9,9,9,9,9,9,9,9,10,10,10,10,10,10,10,10,10,10,11,11,11,11,11,11,11,11,11,11,11,12,12,12,12,12,12,12,12,12,12,12,12,12,13,13,13,13,13,13,13,13,13,14,14,14,14,14,14,14,14,15,15,15,15,15,15,15,15,16,16,16,16,16,16,16,17,17,17,17,17,17,17,17,18,18,18,18,18,18,18,18,19,19,19,19,19,19,20,20,20,20,20,21,21,21,21,22,22,22,22,23,23,23,24,25];
unsucc = [3,4,5,6,8,10,13,14,15,16,19,20,21,22,24,26,4,5,6,7,8,9,10,11,12,13,14,15,16,17,18,19,20,21,22,23,24,25,26,5,6,7,8,9,10,11,12,13,14,15,16,17,19,20,21,22,24,25,26,6,7,8,9,10,11,13,14,15,16,17,19,20,21,22,26,7,8,10,13,14,15,16,19,20,22,24,26,8,10,13,14,15,16,19,20,21,22,24,26,9,10,11,12,13,14,15,16,19,20,21,22,23,24,25,26,10,13,14,15,16,19,20,21,22,23,24,26,11,12,13,14,16,17,19,20,21,23,13,14,15,16,19,20,21,22,23,24,26,13,14,15,16,17,18,19,20,21,22,23,24,26,14,16,17,19,20,21,22,23,26,15,17,18,20,21,22,24,25,16,17,19,20,21,22,23,26,17,18,20,21,22,24,25,19,20,21,22,23,24,25,26,19,20,21,22,23,24,25,26,20,21,22,23,24,25,21,22,23,24,26,22,24,25,26,23,24,25,26,24,25,26,26,26];

USEFUL_RES = [{},
	{1},
	{1},
	{1},
	{2},
	{2},
	{1},
	{2},
	{2},
	{2},
	{1},
	{2},
	{1},
	{1},
	{2},
	{2},
	{1},
	{1},
	{1},
	{2},
	{1},
	{2},
	{2},
	{1,2},
	{1},
	{2},
	{}];

POTENTIAL_ACT = [{2,3,4,7,11,13,14,17,18,19,21,24,25},
	{5,6,8,9,10,12,15,16,20,22,23,24,26}];
